c Generated map
c Size: 8 * 8, weights in range: 1 to 10, walls: True, with ratio 0.1
c dim 8 of 9
c
p sp 64 93
c graph contains 64 nodes and 93 arcs
c
a 1 9 6
a 9 1 6
a 1 2 1
a 2 1 1
a 2 10 1
a 10 2 1
a 4 5 5
a 5 4 5
a 5 13 10
a 13 5 10
a 7 15 10
a 15 7 10
a 7 8 3
a 8 7 3
a 8 16 7
a 16 8 7
a 9 17 9
a 17 9 9
a 9 10 8
a 10 9 8
a 10 18 1
a 18 10 1
a 10 11 5
a 11 10 5
a 11 19 2
a 19 11 2
a 13 21 4
a 21 13 4
a 13 14 7
a 14 13 7
a 14 22 9
a 22 14 9
a 14 15 2
a 15 14 2
a 15 23 4
a 23 15 4
a 15 16 5
a 16 15 5
a 16 24 9
a 24 16 9
a 17 25 5
a 25 17 5
a 17 18 6
a 18 17 6
a 18 26 2
a 26 18 2
a 18 19 2
a 19 18 2
a 19 27 3
a 27 19 3
a 19 20 10
a 20 19 10
a 20 28 1
a 28 20 1
a 20 21 6
a 21 20 6
a 21 29 2
a 29 21 2
a 21 22 5
a 22 21 5
a 22 30 5
a 30 22 5
a 22 23 3
a 23 22 3
a 23 31 6
a 31 23 6
a 23 24 3
a 24 23 3
a 24 32 3
a 32 24 3
a 25 33 10
a 33 25 10
a 25 26 7
a 26 25 7
a 26 34 9
a 34 26 9
a 26 27 7
a 27 26 7
a 27 35 10
a 35 27 10
a 27 28 3
a 28 27 3
a 28 36 10
a 36 28 10
a 28 29 6
a 29 28 6
a 29 37 6
a 37 29 6
a 29 30 4
a 30 29 4
a 30 38 1
a 38 30 1
a 30 31 10
a 31 30 10
a 31 39 7
a 39 31 7
a 31 32 2
a 32 31 2
a 32 40 8
a 40 32 8
a 33 41 5
a 41 33 5
a 33 34 2
a 34 33 2
a 34 42 7
a 42 34 7
a 34 35 6
a 35 34 6
a 35 43 5
a 43 35 5
a 35 36 10
a 36 35 10
a 36 44 6
a 44 36 6
a 36 37 8
a 37 36 8
a 37 45 3
a 45 37 3
a 37 38 1
a 38 37 1
a 38 46 1
a 46 38 1
a 38 39 4
a 39 38 4
a 39 47 1
a 47 39 1
a 39 40 2
a 40 39 2
a 40 48 4
a 48 40 4
a 41 49 6
a 49 41 6
a 41 42 6
a 42 41 6
a 42 50 9
a 50 42 9
a 42 43 3
a 43 42 3
a 43 51 10
a 51 43 10
a 43 44 5
a 44 43 5
a 44 52 9
a 52 44 9
a 44 45 7
a 45 44 7
a 45 53 10
a 53 45 10
a 45 46 1
a 46 45 1
a 46 47 2
a 47 46 2
a 47 55 5
a 55 47 5
a 47 48 8
a 48 47 8
a 48 56 9
a 56 48 9
a 49 50 5
a 50 49 5
a 50 58 10
a 58 50 10
a 50 51 6
a 51 50 6
a 51 59 8
a 59 51 8
a 51 52 10
a 52 51 10
a 52 60 7
a 60 52 7
a 52 53 2
a 53 52 2
a 55 63 2
a 63 55 2
a 55 56 10
a 56 55 10
a 56 64 5
a 64 56 5
a 58 59 8
a 59 58 8
a 59 60 9
a 60 59 9
a 62 63 3
a 63 62 3
a 63 64 5
a 64 63 5
